c "84654.clq"
p edge 150 584
e 1 5
e 1 6
e 1 7
e 1 9
e 1 15
e 1 16
e 1 20
e 1 21
e 1 23
e 1 25
e 1 26
e 1 29
e 1 37
e 1 40
e 1 42
e 1 46
e 1 50
e 1 59
e 1 62
e 1 65
e 1 73
e 1 74
e 1 84
e 1 93
e 1 110
e 1 112
e 1 116
e 1 126
e 1 127
e 1 134
e 2 5
e 2 6
e 2 13
e 2 24
e 2 25
e 2 102
e 3 5
e 3 8
e 3 10
e 3 14
e 3 17
e 3 22
e 3 27
e 3 39
e 3 104
e 3 120
e 3 121
e 3 134
e 4 5
e 4 6
e 4 7
e 4 8
e 4 9
e 4 24
e 4 43
e 4 51
e 4 54
e 4 76
e 4 79
e 4 90
e 4 96
e 4 97
e 4 103
e 4 105
e 4 106
e 4 107
e 4 116
e 4 118
e 4 124
e 4 128
e 4 131
e 4 147
e 5 6
e 5 7
e 5 8
e 5 9
e 5 11
e 5 12
e 5 14
e 5 16
e 5 17
e 5 25
e 5 29
e 5 30
e 5 32
e 5 42
e 5 50
e 5 52
e 5 53
e 5 56
e 5 58
e 5 60
e 5 63
e 5 64
e 5 65
e 5 67
e 5 77
e 5 81
e 5 82
e 5 109
e 5 117
e 5 129
e 5 130
e 5 134
e 5 138
e 5 144
e 5 148
e 6 7
e 6 8
e 6 11
e 6 12
e 6 13
e 6 14
e 6 15
e 6 16
e 6 18
e 6 19
e 6 22
e 6 30
e 6 33
e 6 35
e 6 40
e 6 43
e 6 44
e 6 47
e 6 51
e 6 57
e 6 67
e 6 71
e 6 73
e 6 75
e 6 77
e 6 81
e 6 89
e 6 90
e 6 91
e 6 95
e 6 98
e 6 103
e 6 114
e 6 127
e 6 142
e 6 143
e 6 146
e 6 148
e 7 9
e 7 10
e 7 11
e 7 12
e 7 13
e 7 16
e 7 17
e 7 18
e 7 23
e 7 24
e 7 27
e 7 29
e 7 31
e 7 33
e 7 35
e 7 36
e 7 38
e 7 44
e 7 46
e 7 47
e 7 48
e 7 49
e 7 50
e 7 66
e 7 83
e 7 85
e 7 86
e 7 91
e 7 98
e 7 99
e 7 101
e 7 107
e 7 120
e 7 123
e 7 125
e 7 141
e 7 147
e 7 149
e 7 150
e 8 10
e 8 11
e 8 18
e 8 28
e 8 41
e 8 45
e 8 80
e 8 91
e 8 106
e 8 129
e 9 10
e 9 13
e 9 18
e 9 19
e 9 20
e 9 21
e 9 22
e 9 23
e 9 28
e 9 37
e 9 39
e 9 63
e 9 70
e 9 86
e 9 88
e 9 91
e 9 112
e 9 119
e 9 141
e 10 14
e 10 20
e 10 22
e 10 30
e 10 31
e 10 32
e 10 33
e 10 34
e 10 39
e 10 45
e 10 49
e 10 56
e 10 70
e 10 71
e 10 75
e 10 76
e 10 84
e 10 87
e 10 89
e 10 94
e 10 115
e 10 119
e 10 123
e 10 137
e 10 141
e 10 145
e 10 148
e 11 12
e 11 15
e 11 21
e 11 24
e 11 35
e 11 62
e 11 81
e 11 95
e 11 108
e 11 113
e 11 130
e 12 26
e 12 70
e 12 76
e 12 83
e 12 98
e 12 100
e 13 15
e 13 17
e 13 27
e 13 28
e 13 45
e 13 66
e 13 93
e 13 96
e 13 111
e 13 118
e 13 121
e 13 122
e 14 86
e 14 150
e 15 27
e 15 32
e 15 35
e 15 41
e 15 48
e 15 56
e 15 58
e 15 64
e 15 87
e 15 104
e 15 123
e 15 125
e 15 129
e 15 139
e 15 143
e 15 146
e 16 19
e 16 20
e 16 21
e 16 23
e 16 28
e 16 57
e 16 60
e 16 105
e 16 107
e 16 136
e 16 140
e 16 146
e 17 19
e 17 53
e 17 57
e 18 34
e 18 37
e 18 43
e 18 44
e 18 57
e 18 61
e 18 64
e 18 68
e 18 75
e 18 82
e 18 102
e 18 105
e 18 116
e 18 145
e 19 31
e 19 52
e 19 59
e 19 71
e 19 79
e 19 130
e 20 34
e 20 51
e 20 55
e 21 25
e 21 26
e 21 30
e 21 36
e 21 38
e 21 39
e 21 40
e 21 46
e 21 66
e 21 72
e 21 88
e 21 94
e 22 26
e 22 29
e 22 32
e 22 34
e 22 41
e 22 49
e 22 53
e 22 54
e 22 55
e 22 122
e 23 112
e 24 36
e 24 41
e 24 72
e 24 101
e 24 109
e 24 125
e 24 132
e 24 142
e 24 143
e 25 33
e 25 36
e 25 85
e 27 47
e 27 51
e 27 54
e 27 58
e 27 60
e 27 92
e 28 37
e 28 119
e 28 145
e 29 31
e 29 59
e 29 80
e 29 84
e 29 97
e 29 99
e 29 100
e 29 103
e 29 112
e 29 115
e 29 124
e 29 130
e 30 42
e 30 52
e 30 131
e 31 68
e 31 83
e 31 150
e 32 43
e 32 45
e 32 62
e 32 65
e 32 80
e 32 101
e 32 119
e 33 46
e 33 53
e 33 61
e 33 63
e 33 99
e 33 104
e 33 114
e 33 120
e 33 135
e 34 38
e 34 66
e 34 76
e 34 87
e 35 42
e 35 52
e 35 61
e 35 62
e 35 69
e 35 78
e 36 38
e 36 123
e 37 40
e 38 69
e 38 128
e 38 147
e 39 44
e 39 56
e 39 59
e 39 68
e 39 71
e 39 81
e 39 106
e 40 85
e 40 108
e 40 127
e 40 135
e 42 69
e 42 74
e 42 77
e 42 109
e 42 117
e 42 120
e 42 122
e 43 55
e 43 88
e 43 102
e 43 103
e 43 133
e 44 47
e 44 48
e 44 60
e 44 78
e 44 90
e 44 101
e 44 111
e 44 129
e 44 148
e 45 49
e 45 104
e 46 50
e 46 69
e 46 108
e 46 111
e 47 48
e 47 54
e 47 96
e 47 133
e 48 70
e 48 94
e 49 137
e 50 61
e 50 74
e 50 121
e 51 75
e 51 90
e 51 139
e 52 95
e 52 110
e 52 133
e 53 55
e 53 64
e 53 65
e 53 82
e 53 83
e 53 84
e 53 89
e 53 92
e 53 93
e 53 114
e 53 126
e 53 127
e 53 128
e 53 144
e 54 146
e 54 149
e 55 87
e 55 107
e 55 118
e 55 138
e 56 63
e 56 95
e 56 105
e 56 106
e 56 126
e 57 58
e 57 115
e 58 67
e 58 72
e 59 108
e 59 111
e 59 133
e 60 73
e 60 79
e 60 96
e 60 100
e 60 124
e 60 140
e 61 85
e 61 88
e 61 110
e 63 73
e 63 74
e 63 97
e 63 113
e 63 131
e 64 68
e 64 78
e 64 92
e 64 110
e 64 126
e 64 137
e 66 67
e 66 89
e 67 94
e 67 125
e 69 79
e 69 113
e 70 78
e 70 113
e 70 115
e 70 121
e 70 135
e 71 72
e 71 80
e 74 118
e 74 147
e 75 77
e 76 82
e 76 114
e 76 124
e 77 132
e 77 137
e 78 99
e 79 139
e 80 102
e 80 117
e 81 100
e 82 86
e 82 116
e 82 117
e 82 134
e 83 97
e 85 93
e 85 131
e 87 122
e 87 144
e 88 92
e 88 132
e 90 140
e 92 109
e 93 98
e 94 136
e 94 139
e 95 142
e 101 128
e 102 149
e 105 138
e 108 136
e 112 149
e 113 144
e 116 138
e 116 150
e 117 132
e 118 141
e 121 135
e 124 140
e 131 143
e 134 136
e 139 145
e 141 142
